;(set-option :produce-unsat-cores true )
(set-logic ALL_SUPPORTED )
(declare-sort A$ 0 )
(declare-codatatypes ()((A_llist$ (lNil$ )(lCons$ (lhd$ A$ )(ltl$ A_llist$ )))))
(declare-fun s$ ()A_llist$ )
(declare-fun less$ (A_llist$ A_llist$ )Bool )
(declare-fun lappend$ (A_llist$ A_llist$ )A_llist$ )
(declare-fun less_eq$ (A_llist$ A_llist$ )Bool )
(declare-fun lbutlast$ (A_llist$ )A_llist$ )
(assert (! (not (= (less_eq$ s$ lNil$ )(= s$ lNil$ ))):named a0 ))
(assert (! (forall ((?v0 A_llist$ ))(less_eq$ lNil$ ?v0 )):named a1 ))
(assert (! (forall ((?v0 A_llist$ ))(less_eq$ lNil$ ?v0 )):named a2 ))
(assert (! (forall ((?v0 A$ )(?v1 A_llist$ ))(not (less_eq$ (lCons$ ?v0 ?v1 )lNil$ ))):named a3 ))
(assert (! (forall ((?v0 A_llist$ )(?v1 A_llist$ ))(! (= (less$ ?v0 ?v1 )(and (less_eq$ ?v0 ?v1 )(not (= ?v0 ?v1 )))):pattern ((less$ ?v0 ?v1 )))):named a4 ))
(assert (! (= (lbutlast$ lNil$ )lNil$ ):named a5 ))
(assert (! (forall ((?v0 A_llist$ )(?v1 A_llist$ ))(= (less_eq$ ?v0 ?v1 )(exists ((?v2 A_llist$ ))(= ?v1 (lappend$ ?v0 ?v2 ))))):named a6 ))
(assert (! (forall ((?v0 A$ )(?v1 A_llist$ )(?v2 A$ )(?v3 A_llist$ ))(= (= (lCons$ ?v0 ?v1 )(lCons$ ?v2 ?v3 ))(and (= ?v0 ?v2 )(= ?v1 ?v3 )))):named a7 ))
(assert (! (forall ((?v0 A$ )(?v1 A_llist$ )(?v2 A_llist$ ))(! (= (lappend$ (lCons$ ?v0 ?v1 )?v2 )(lCons$ ?v0 (lappend$ ?v1 ?v2 ))):pattern ((lappend$ (lCons$ ?v0 ?v1 )?v2 )))):named a8 ))
(assert (! (forall ((?v0 A_llist$ ))(! (= (lappend$ lNil$ ?v0 )?v0 ):pattern ((lappend$ lNil$ ?v0 )))):named a9 ))
(check-sat )
;(get-unsat-core )
